#************************************************************************************
#*                   Generated by cif2cell 2.0.0 2022-06-14 9:46                    *
#*  T. Bjorkman, Comp. Phys. Commun. 182, 1183-1186 (2011). Please cite generously. *
#*                                                                                  *
#*                              Data obtained from COD                              *
#*                                     Si   ()                                      *
#*             Failed to get author information, No journal information             *
#************************************************************************************
&CONTROL
calculation = 'scf'
restart_mode = 'from_scratch'
prefix = 'qa'
outdir = './out_qa'
pseudo_dir = './pseudo'
/
&SYSTEM
ibrav = 0
nat = 8
ntyp = 1
occupations = 'fixed'
ecutwfc = 80
ecutrho = 240
/
&ELECTRONS
conv_thr = 1.0d-8
/
ATOMIC_SPECIES
Si   28.08500  Si.pbe-n-kjpaw_psl.1.0.0.UPF
CELL_PARAMETERS {angstrom}
5.70 0.000000 0.000000
0.000000 5.70 0.000000
0.000000 0.000000 5.70
ATOMIC_POSITIONS {crystal}
Si 0.250000 0.750000 0.250000
Si 0.000000 0.000000 0.500000
Si 0.250000 0.250000 0.750000
Si 0.000000 0.500000 0.000000
Si 0.750000 0.750000 0.750000
Si 0.500000 0.000000 0.000000
Si 0.750000 0.250000 0.250000
Si 0.500000 0.500000 0.500000
K_POINTS automatic
4 4 4 1 1 1